Global Parameters

ISTART = 0            (Read existing wavefunction, if there)
ICHARG = 2


ISPIN  =  2            (Non-Spin polarised DFT)
#AMIX = 0.2
#BMIX = 0.0001 
#AMIX_MAG = 0.8
#BMIX_MAG = 0.0001 


LREAL  = .FALSE.       (Projection operators: automatic)
ENCUT  =  600        (Cut-off energy for plane wave basis set, in eV)



LWAVE  = .TRUE.        (Write WAVECAR or not)
LCHARG = .TRUE.        (Write CHGCAR or not)


NSW = 0
IBRION = -1
 
Static Calculation
ISMEAR =  0            (gaussian smearing method)
SIGMA  =  0.05         (please check the width of the smearing)
LORBIT =  10 
NEDOS  =  3000         (DOSCAR points)
NELM   = 200           (Max electronic SCF steps)
EDIFF  =  1E-08        (SCF energy convergence, in eV)
GGA = PE
