Global Parameters
ISTART =  0            (Read existing wavefunction, if there)

#ISPIN  =  2            (Non-Spin polarised DFT)

#AMIX = 0.2
#BMIX = 0.0001 
#AMIX_MAG = 0.8
#BMIX_MAG = 0.0001 



#ICHARG =  2         (Non-self-consistent: GGA/LDA band structures)

LREAL  = .FALSE.       (Projection operators: automatic)
ENCUT  =  600        (Cut-off energy for plane wave basis set, in eV)

LWAVE  = F        (Write WAVECAR or not)
LCHARG = F        (Write CHGCAR or not)

 
Lattice Relaxation
NSW    =  300          (number of ionic steps)
ISMEAR =  0            (gaussian smearing method )
SIGMA  =  0.05         (please check the width of the smearing)
IBRION =  2            (Algorithm: 0-MD, 1-Quasi-New, 2-CG)
ISIF   =  3            (optimize atomic coordinates and lattice parameters)
EDIFFG = -1E-03      (Ionic convergence, eV/A)
EDIFF = 1E-6
PREC   =  Accurate     (Precision level)
NCORE = 2
ALGO = N
NELM = 300
GGA = PS

#PSTRESS = 0
