ISTART = 1
ENCUT = 600

#mag calculation
#ISPIN = 2
#AMIX = 0.2
#BMIX = 0.0001 
#AMIX_MAG = 0.8
#BMIX_MAG = 0.0001 



HSE06 Calculation
LHFCALC= .TRUE.       (Activate HF)
AEXX   =  0.25        (25% HF exact exchange, adjusted this value to reproduce experimental band gap)
HFSCREEN= 0.2         (Switch to screened exchange, e.g. HSE06)
ALGO   =  A         (Electronic Minimisation Algorithm, ALGO=58)
TIME   =  0.4         (Timestep for IALGO5X)
PRECFOCK= N           (HF FFT grid)

 
Optical properties
ALGO     =  Exact
NBANDS   =  56           (Set this parameters manually)
LOPTICS  = .TRUE.
CSHIFT   =  0.100
NEDOS    =  2000
ISMEAR   =  0
SIGMA    =  0.1
EDIFF    =  1.E-6
# LPEAD  = .TRUE.       (Write the derivative of the cell-periodic part of the orbitals)
GGA = PE
NELM   =  200 
