Global Parameters
ISTART =  0            (Read existing wavefunction, if there)
#ISPIN  =  1            (Non-Spin polarised DFT)
ICHARG =  2         (Non-self-consistent: GGA/LDA band structures)
LREAL  = .FALSE.       (Projection operators: automatic)
ENCUT  =  600        (Cut-off energy for plane wave basis set, in eV)

LWAVE  = F        (Write WAVECAR or not)
LCHARG = F        (Write CHGCAR or not)
ADDGRID= .TRUE.        (Increase grid, helps GGA convergence)
 
Lattice Relaxation
NSW    =  300          (number of ionic steps)
ISMEAR =  0            (gaussian smearing method )
SIGMA  =  0.05         (please check the width of the smearing)
IBRION =  2            (Algorithm: 0-MD, 1-Quasi-New, 2-CG)
ISIF   =  3            (optimize atomic coordinates and lattice parameters)
EDIFFG = -1E-04      (Ionic convergence, eV/A)
EDIFF = 1E-9
PREC   =  Accurate     (Precision level)
NCORE = 2
ALGO = N
NELMIN = 4
NELM = 300
#KSPACING = 0.2
GGA = PS
ISYM = 1
