ISTART = 0
ICHARG = 2
PREC = Accurate
IBRION = -1
EDIFF = 1E-08
NSW = 0
NELM = 100
ENCUT = 600
ISMEAR = 0
SIGMA = 0.05
ISYM = 0
LWAVE = F
LCHARG = F
LREAL = F
ADDGRID = T
GGA = PS
