ISTART = 1
LREAL = .FALSE.
LWAVE = .TRUE.
LCHARG = .TRUE.
ADDGRID = .TRUE.
ENCUT = 600
#NPAR = 6
GGA = PS

#MAGMOM CALCULATION
#ISPIN = 2
#MAGMOM = 5*5

#Static calculation
ISMEAR = 0
SIGMA = 0.05
NELM = 60
EDIFF = 1E-06

#HSE06 CALCULATION
LHFCALC = .TRUE.
AEXX = 0.25
HFSCREEN = 0.2
#ALGO = ALL
TIME = 0.4
PRECFOCK = N
#NKRED = 2

#OPTIC CALCULATION
ALGO = Exact
NBANDS = ? 
LOPTICS = .TRUE.
CSHIFT = 0.100
NEDOS = 2001
