
Global Parameters
ISTART =  0            (Read existing wavefunction, if there)



# ICHARG =  11         (Non-self-consistent: GGA/LDA band structures)
LREAL  = .FALSE.       (Projection operators: automatic)
ENCUT  =  600        (Cut-off energy for plane wave basis set, in eV)
LWAVE  = .TRUE.        (Write WAVECAR or not)
LCHARG = .TRUE.        (Write CHGCAR or not)

 
Lattice Relaxation
NSW    =  300          (number of ionic steps)
ISMEAR =  0            (gaussian smearing method )
SIGMA  =  0.05         (please check the width of the smearing)
IBRION =  2            (Algorithm: 0-MD, 1-Quasi-New, 2-CG)
ISIF   =  3            (optimize atomic coordinates and lattice parameters)
EDIFFG = -1E-04      (Ionic convergence, eV/A)
EDIFF = 1E-8
GGA = PE
PREC   =  Accurate     (Precision level)
NCORE = 2
 
