Global Parameters
ISTART =  1            (Read existing wavefunction, if there)
ISPIN  =  1            (Non-Spin polarised DFT)
LREAL  = .FALSE.       (Projection operators: automatic)
 ENCUT  =  700        (Cut-off energy for plane wave basis set, in eV)
 PREC   =  Accurate   (Precision level: Normal or Accurate, set Accurate when perform structure lattice relaxation calculation)
LWAVE  = .TRUE.        (Write WAVECAR or not)
LCHARG = .TRUE.        (Write CHGCAR or not)
ADDGRID= .TRUE.        (Increase grid, helps GGA convergence)

 
Static Calculation
ISMEAR =  0            (gaussian smearing method)
SIGMA  =  0.05         (please check the width of the smearing)
NELM   =  60           (Max electronic SCF steps)
EDIFF  =  1E-08        (SCF energy convergence, in eV)
 
Optical properties
ALGO     =  Exact
NBANDS   =  84           (Set this parameters manually)
LOPTICS  = .TRUE.
CSHIFT   =  0.100
NEDOS    =  2000
EDIFF    =  1.E-8
GGA = PS
# LPEAD  = .TRUE.       (Write the derivative of the cell-periodic part of the orbitals)
 
