DFT+U Calculation
LDAU   = .TRUE.        (Activate DFT+U)
LDATYPE=  2            (Dudarev, only U-J matters)
LDAUL  =  -1 2 -1         (Orbitals for each species)
LDAUU  =  0  2  0         (U for each species)
LDAUJ  =  0  0  0         (J for each species)
LMAXMIX=  4            (Mixing cut-off, 4-d, 6-f)

ISPIN  =  2            (Non-Spin polarised DFT)
MAGMOM = 5*5

Global Parameters
ISTART =  0            (Read existing wavefunction, if there)
ICHARG =  2         (Non-self-consistent: GGA/LDA band structures)
LREAL  = .FALSE.       (Projection operators: automatic)
ENCUT  =  600        (Cut-off energy for plane wave basis set, in eV)
PREC   =  Accurate   (Precision level: Normal or Accurate, set Accurate when perform structure lattice relaxation calculation)
LWAVE  = .TRUE.        (Write WAVECAR or not)
LCHARG = .TRUE.        (Write CHGCAR or not)


Static Calculation
ISMEAR =  0            (gaussian smearing method)
SIGMA  =  0.05         (please check the width of the smearing)
LORBIT =  11           (PAW radii for projected DOS)
NEDOS  =  2001         (DOSCAR points)
NELM   =  100           (Max electronic SCF steps)
NELMIN = 6
EDIFF  =  1E-08        (SCF energy convergence, in eV)
GGA = PE
 

