DFT+U Calculation
LDAU   = .TRUE.        (Activate DFT+U)
LDATYPE=  2            (Dudarev, only U-J matters)
LDAUL  =  -1 2 -1         (Orbitals for each species)
LDAUU  =  0  2  0         (U for each species)
LDAUJ  =  0  0  0         (J for each species)
LMAXMIX=  4            (Mixing cut-off, 4-d, 6-f)
 
Global Parameters
ISTART =  0            (Read existing wavefunction, if there)

ISPIN  =  2            (Non-Spin polarised DFT)
MAMMOM = 5*5

# ICHARG =  11         (Non-self-consistent: GGA/LDA band structures)
LREAL  = .FALSE.       (Projection operators: automatic)
ENCUT  =  600        (Cut-off energy for plane wave basis set, in eV)
LWAVE  = .TRUE.        (Write WAVECAR or not)
LCHARG = .TRUE.        (Write CHGCAR or not)

 
Lattice Relaxation
NSW    =  300          (number of ionic steps)
ISMEAR =  0            (gaussian smearing method )
SIGMA  =  0.05         (please check the width of the smearing)
IBRION =  2            (Algorithm: 0-MD, 1-Quasi-New, 2-CG)
ISIF   =  3            (optimize atomic coordinates and lattice parameters)
EDIFFG = -1E-03      (Ionic convergence, eV/A)
EDIFF = 1E-08
GGA = PE
PREC   =  Accurate     (Precision level)
NCORE = 2
 
