 SYSTEM =  qvasp 

INCAR-basic
   PREC   = Normal
   ENCUT  = 750 eV
   NELMIN= 5
   LREAL = F    ## set to Auto if the atomic number > 20

#   ALGO = Fast
   EDIFF  = 1E-6
#  ISMEAR = 0
   SIGMA = 0.2

#   LDAU=.TRUE.  ## For LDA + U set
#   LDAUTYPE=2
#   LDAUL=2 -1
#   LDAUU=3  0
#   LDAUJ=0  0

   ISPIN = 1    ## For magnetism set
#  MAGMOM = 3*1
 Optics calculate
   ISMEAR = -5
   LREAL=.False. 
   ADDGRID = .TRUE.
   ISTART = 1
   ICHARG = 2  

   NEDOS=2000
   CSHIFT=0.1
   LOPTICS=.TRUE.
   NBANDS=56              # Increase NBANDS about 1.5 times

 Usually contains HSE06
   NELM = 100
   LHFCALC = .TRUE.
   HFSCREEN = 0.2
   AEXX = 0.25
   ALGO = D
   TIME = 0.4
   PRECFOCK= N

   LCHARG = .FALSE.
   LWAVE  =  F
   GGA = PS
# Use 'qvasp -opticsd' to deal data (OriginPro)
