Global Parameters
  ISTART =  0        
  LREAL  =  F
  ENCUT = 750      
  PREC   =  High  
  LWAVE  = F       
  LCHARG = F     
  ADDGRID= .TRUE.    
Electronic Relaxation
  ISMEAR =  0          
  SIGMA  =  0.05       
  NELM   =  100           
  NELMIN =  4           
  EDIFF  =  1E-08       
Ionic Relaxation
  NELMIN =  6          
  NSW    =  100         
  IBRION =  2           
  ISIF   =  2    
  EDIFFG = -1E-03 
  KSPACING = 0.2
  GGA = PS
