Global Parameters
ISTART =  0            (Read existing wavefunction, if there)
ISPIN  =  2            (Non-Spin polarised DFT)
 ICHARG =  2         (Non-self-consistent: GGA/LDA band structures)
LREAL  = .FALSE.       (Projection operators: automatic)
 ENCUT  =  600        (Cut-off energy for plane wave basis set, in eV)
 PREC   =  Accurate   (Precision level: Normal or Accurate, set Accurate when perform structure lattice relaxation calculation)
LWAVE  = .TRUE.        (Write WAVECAR or not)
LCHARG = .TRUE.        (Write CHGCAR or not)
ADDGRID= .TRUE.        (Increase grid, helps GGA convergence)

Electronic Relaxation
ISMEAR =  0            (Gaussian smearing, metals:1)
SIGMA  =  0.05         (Smearing value in eV, metals:0.2)
NELM   =  100           (Max electronic SCF steps)
NELMIN =  6            (Min electronic SCF steps)
EDIFF  =  1E-08        (SCF energy convergence, in eV)
 GGA  =  PE           (PBEsol exchange-correlation)
 
Ionic Relaxation
NSW    =  100          (Max ionic steps)
IBRION =  2            (Algorithm: 0-MD, 1-Quasi-New, 2-CG)
ISIF   =  2            (Stress/relaxation: 2-Ions, 3-Shape/Ions/V, 4-Shape/Ions)
EDIFFG = -1E-03        (Ionic convergence, eV/AA)
# ISYM =  2            (Symmetry: 0=none, 2=GGA, 3=hybrids)
 
